% File represents an instance of a Composite Structure problem to be solved by a CP framework
% Created on 2025-03-26 10:41:35.497
T = 50;
n = 25;
m = 40;
edges = [(1, 2),
(6, 7),
(11, 12),
(16, 17),
(21, 22),
(2, 3),
(7, 8),
(12, 13),
(17, 18),
(22, 23),
(3, 4),
(8, 9),
(13, 14),
(18, 19),
(23, 24),
(5, 4),
(9, 10),
(14, 15),
(19, 20),
(24, 25),
(6, 1),
(11, 6),
(16, 11),
(21, 16),
(7, 2),
(12, 7),
(17, 12),
(22, 17),
(8, 3),
(13, 8),
(18, 13),
(23, 18),
(9, 4),
(14, 9),
(19, 14),
(24, 19),
(5, 10),
(15, 10),
(20, 15),
(25, 20)];
counts = [|6, 12, 6, 4,
|4, 10, 4, 4,
|4, 4, 4, 4,
|4, 2, 4, 2,
|4, 6, 4, 2,
|6, 14, 6, 8,
|6, 12, 6, 4,
|4, 10, 4, 4,
|4, 6, 4, 4,
|4, 4, 4, 2,
|8, 16, 8, 8,
|8, 14, 8, 4,
|6, 12, 6, 4,
|4, 10, 4, 4,
|4, 10, 4, 2,
|10, 18, 10, 8,
|10, 16, 10, 4,
|8, 14, 8, 4,
|6, 12, 6, 4,
|6, 12, 6, 2,
|10, 22, 10, 8,
|10, 20, 10, 6,
|8, 20, 8, 4,
|8, 14, 8, 4,
|8, 14, 8, 2|];
